<number of tasks>
53

<cycle time>
2806

<task times>
1 971
2 142
3 142
4 142
5 103
6 96
7 99
8 1207
9 160
10 180
11 82
12 60
13 112
14 420
15 1556
16 236
17 259
18 125
19 601
20 80
21 80
22 70
23 89
24 89
25 105
26 330
27 132
28 69
29 99
30 70
31 70
32 158
33 191
34 70
35 53
36 50
37 125
38 353
39 70
40 128
41 65
42 1775
43 91
44 91
45 113
46 487
47 138
48 80
49 80
50 65
51 40
52 742
53 1085

<precedence relations>
1,2
1,3
1,4
1,5
1,6
1,7
2,36
3,36
4,9
5,9
6,9
7,9
8,9
9,10
10,11
11,12
12,13
12,14
12,15
13,16
13,17
13,18
14,22
15,16
15,17
16,29
16,30
16,31
17,19
18,42
19,20
19,21
19,22
20,23
21,24
22,25
23,36
24,36
25,26
26,27
27,28
28,29
28,30
28,31
28,32
28,33
28,34
29,35
30,35
31,35
32,35
33,35
34,35
35,36
36,37
37,38
37,39
37,40
38,41
39,41
40,41
41,42
42,43
42,44
42,45
42,46
42,47
43,48
44,49
45,51
45,52
46,50
47,51
47,52
48,51
48,52
49,51
49,52
50,51
50,52
51,53
52,53

<setup times forward>
1,6:54
2,6:54
2,9:54
2,10:54
2,11:54
2,12:54
2,13:54
2,14:20
2,15:54
2,16:54
2,17:54
2,18:19
2,19:19
2,20:19
2,21:19
2,22:19
2,23:19
2,24:19
2,25:19
2,26:19
2,27:19
2,28:19
2,29:19
2,30:19
2,31:19
2,32:19
2,33:19
2,34:19
2,35:19
2,36:19
3,6:54
3,9:54
3,10:54
3,11:54
3,12:54
3,13:54
3,14:20
3,15:54
3,16:54
3,17:54
3,18:19
3,19:19
3,20:19
3,21:19
3,22:19
3,23:19
3,24:19
3,25:19
3,26:19
3,27:19
3,28:19
3,29:19
3,30:19
3,31:19
3,32:19
3,33:19
3,34:19
3,35:19
3,36:19
4,6:54
4,9:54
5,6:54
5,9:54
6,2:54
6,3:54
6,4:54
6,5:54
6,7:54
6,8:54
7,6:54
7,9:54
8,6:54
8,9:54
9,2:54
9,3:54
10,2:54
10,3:54
11,2:54
11,3:54
12,2:54
12,3:54
12,14:74
13,2:54
13,3:54
13,14:74
13,18:35
14,2:20
14,3:20
14,13:74
14,15:74
14,16:74
14,17:74
14,18:39
14,19:39
14,20:39
14,21:39
14,22:39
14,23:39
14,24:39
15,2:54
15,3:54
15,14:74
15,18:35
16,2:54
16,3:54
16,14:74
16,18:35
16,19:35
16,20:35
16,21:35
16,22:35
16,23:35
16,24:35
16,25:35
16,26:35
16,27:35
16,28:35
16,29:35
16,30:35
16,31:35
16,32:35
16,33:35
16,34:35
17,2:54
17,3:54
17,14:74
17,18:35
17,19:35
18,2:19
18,3:19
18,14:39
18,15:35
18,16:35
18,17:35
18,38:6
18,39:6
18,40:6
18,41:6
18,42:6
19,2:19
19,3:19
19,14:39
19,16:35
20,2:19
20,3:19
20,14:39
20,16:35
21,2:19
21,3:19
21,14:39
21,16:35
22,2:19
22,3:19
22,16:35
23,2:19
23,3:19
23,14:39
23,16:35
24,2:19
24,3:19
24,14:39
24,16:35
25,2:19
25,3:19
25,16:35
26,2:19
26,3:19
26,16:35
27,2:19
27,3:19
27,16:35
28,2:19
28,3:19
28,16:35
29,2:19
29,3:19
30,2:19
30,3:19
31,2:19
31,3:19
32,2:19
32,3:19
32,16:35
33,2:19
33,3:19
33,16:35
34,2:19
34,3:19
34,16:35
35,2:19
35,3:19
37,38:6
37,39:6
37,40:6
38,18:6
39,18:6
40,18:6
41,18:6
42,46:43
42,47:43
43,46:43
43,47:43
43,48:43
43,49:43
43,50:43
44,46:43
44,47:43
44,48:43
44,49:43
44,50:43
45,46:43
45,47:43
45,48:43
45,49:43
45,50:43
45,51:43
45,52:43
46,43:43
46,44:43
46,45:43
47,43:43
47,44:43
47,45:43
48,44:43
48,45:43
49,43:43
49,45:43
50,43:43
50,44:43
50,45:43

<setup times backward>
2,14:20
3,14:20
6,1:54
6,2:54
6,3:54
6,4:54
6,5:54
6,7:54
6,8:54
9,1:54
9,2:54
9,3:54
9,4:54
9,5:54
9,7:54
9,8:54
10,1:54
10,2:54
10,3:54
10,4:54
10,5:54
10,7:54
10,8:54
11,1:54
11,2:54
11,3:54
11,4:54
11,5:54
11,7:54
11,8:54
12,1:54
12,2:54
12,3:54
12,4:54
12,5:54
12,7:54
12,8:54
13,1:54
13,2:54
13,3:54
13,4:54
13,5:54
13,7:54
13,8:54
13,14:74
15,1:54
15,2:54
15,3:54
15,4:54
15,5:54
15,7:54
15,8:54
15,14:74
15,18:35
16,1:54
16,2:54
16,3:54
16,4:54
16,5:54
16,7:54
16,8:54
16,14:74
16,18:35
16,19:35
16,20:35
16,21:35
16,22:35
16,23:35
16,24:35
16,25:35
16,26:35
16,27:35
16,28:35
16,32:35
16,33:35
16,34:35
17,1:54
17,2:54
17,3:54
17,4:54
17,5:54
17,7:54
17,8:54
17,14:74
17,18:35
18,1:19
18,2:19
18,3:19
18,4:19
18,5:19
18,7:19
18,8:19
18,14:39
18,38:6
18,39:6
18,40:6
18,41:6
19,1:19
19,2:19
19,3:19
19,4:19
19,5:19
19,7:19
19,8:19
19,14:39
20,1:19
20,2:19
20,3:19
20,4:19
20,5:19
20,7:19
20,8:19
20,14:39
21,1:19
21,2:19
21,3:19
21,4:19
21,5:19
21,7:19
21,8:19
21,14:39
22,1:19
22,2:19
22,3:19
22,4:19
22,5:19
22,7:19
22,8:19
22,14:39
23,1:19
23,2:19
23,3:19
23,4:19
23,5:19
23,7:19
23,8:19
23,14:39
24,1:19
24,2:19
24,3:19
24,4:19
24,5:19
24,7:19
24,8:19
24,14:39
25,1:19
25,2:19
25,3:19
25,4:19
25,5:19
25,7:19
25,8:19
25,14:39
26,1:19
26,2:19
26,3:19
26,4:19
26,5:19
26,7:19
26,8:19
26,14:39
27,1:19
27,2:19
27,3:19
27,4:19
27,5:19
27,7:19
27,8:19
27,14:39
28,1:19
28,2:19
28,3:19
28,4:19
28,5:19
28,7:19
28,8:19
28,14:39
29,1:19
29,2:19
29,3:19
29,4:19
29,5:19
29,7:19
29,8:19
29,14:39
30,1:19
30,2:19
30,3:19
30,4:19
30,5:19
30,7:19
30,8:19
30,14:39
31,1:19
31,2:19
31,3:19
31,4:19
31,5:19
31,7:19
31,8:19
31,14:39
32,1:19
32,2:19
32,3:19
32,4:19
32,5:19
32,7:19
32,8:19
32,14:39
33,1:19
33,2:19
33,3:19
33,4:19
33,5:19
33,7:19
33,8:19
33,14:39
34,1:19
34,2:19
34,3:19
34,4:19
34,5:19
34,7:19
34,8:19
34,14:39
35,1:19
35,2:19
35,3:19
35,4:19
35,5:19
35,7:19
35,8:19
35,14:39
36,1:19
36,2:19
36,3:19
36,4:19
36,5:19
36,7:19
36,8:19
36,14:39
37,1:19
37,2:19
37,3:19
37,4:19
37,5:19
37,7:19
37,8:19
37,14:39
38,1:13
38,2:13
38,3:13
38,4:13
38,5:13
38,7:13
38,8:13
38,14:33
39,1:13
39,2:13
39,3:13
39,4:13
39,5:13
39,7:13
39,8:13
39,14:33
40,1:13
40,2:13
40,3:13
40,4:13
40,5:13
40,7:13
40,8:13
40,14:33
41,1:13
41,2:13
41,3:13
41,4:13
41,5:13
41,7:13
41,8:13
41,14:33
42,1:13
42,2:13
42,3:13
42,4:13
42,5:13
42,7:13
42,8:13
42,14:33
43,1:13
43,2:13
43,3:13
43,4:13
43,5:13
43,7:13
43,8:13
43,14:33
43,46:43
43,47:43
43,49:43
43,50:43
44,1:13
44,2:13
44,3:13
44,4:13
44,5:13
44,7:13
44,8:13
44,14:33
44,46:43
44,47:43
44,48:43
44,50:43
45,1:13
45,2:13
45,3:13
45,4:13
45,5:13
45,7:13
45,8:13
45,14:33
45,46:43
45,47:43
45,48:43
45,49:43
45,50:43

<end>

<optimal SALBP-1 value>
6


<rand seed>
467321153

